NAME issue-2550
ROWS
 N  OBJ
 L  c
COLUMNS
    x         OBJ       2         c         1
    y         OBJ       1         c         1
RHS
    RHS_V     c         1
BOUNDS
 FR BOUND     x
 FR BOUND     y
ENDATA
